; benchmark generated from python API
(set-info :status unknown)
(declare-datatypes ((RealState 0)) (((RMk1 (rval1 Real)) (RMk2 (rval2 Real)))))
 (assert
 (forall ((|v11:0| Real) )(forall ((|v10:1| Real) )(forall ((|v9:2| Real) )(forall ((|v8:3| Real) )(exists ((|v7:4_st| RealState) (val!4228 Real) )(exists ((|v6:5_st| RealState) (val!4229 Real) )(exists ((|v5:6_st| RealState) (val!4230 Real) )(exists ((|v4:7_st| RealState) (val!4231 Real) )(forall ((|v3:8| Real) )(forall ((|v2:9| Real) )(forall ((|v1:10| Real) )(forall ((|v0:11| Real) )(let ((?x1187 (* 20.0 |v2:9|)))
 (let ((?x486 (+ (+ (+ (* (- 14.0) |v0:11|) (* 20.0 |v8:3|)) (* 17.0 |v2:9|)) ?x1187)))
 (let ((?x934 (rval2 |v6:5_st|)))
 (let ((?x1033 (* 8.0 ?x934)))
 (let ((?x524 (+ (+ (+ (* 16.0 (rval2 |v4:7_st|)) (* (- 6.0) |v10:1|)) ?x1033) (* 20.0 (rval2 |v4:7_st|)))))
 (let ((?x760 (rval2 |v7:4_st|)))
 (let ((?x2108 (* 20.0 ?x760)))
 (let ((?x1736 (+ (+ (+ (* (- 14.0) |v3:8|) (* 15.0 |v1:10|)) (* 2.0 (rval2 |v4:7_st|))) ?x2108)))
 (let ((?x574 (- 3.0)))
 (let ((?x1321 (+ (+ (+ (* 9.0 |v3:8|) (* (- 2.0) |v11:0|)) (* (- 15.0) |v3:8|)) (* 3.0 |v10:1|))))
 (let ((?x773 (- 5.0)))
 (let ((?x468 (rval2 |v4:7_st|)))
 (let ((?x2655 (- 6.0)))
 (let ((?x1653 (* ?x2655 ?x468)))
 (let ((?x2023 (+ (+ (+ (* (- 7.0) |v3:8|) (* (- 20.0) |v9:2|)) ?x1653) (* 0.0 ?x468))))
 (let (($x2593 (or (or (<= ?x2023 ?x773) (<= ?x1321 ?x574)) (and (<= ?x1736 17.0) (<= ?x524 1.0)))))
 (let ((?x1382 (+ (+ (+ (* (- 7.0) |v9:2|) (* (- 19.0) |v1:10|)) ?x760) (* ?x773 |v8:3|))))
 (let ((?x1581 (- 17.0)))
 (let ((?x2692 (- 10.0)))
 (let ((?x2291 (* ?x2692 |v0:11|)))
 (let ((?x2916 (+ (+ (+ (* (- 4.0) ?x468) (* 17.0 |v10:1|)) (* (- 14.0) |v3:8|)) ?x2291)))
 (let ((?x355 (- 13.0)))
 (let ((?x727 (* 11.0 |v2:9|)))
 (let ((?x1027 (+ (+ (+ (* (- 11.0) |v1:10|) (* 8.0 |v11:0|)) (* 17.0 |v8:3|)) ?x727)))
 (let ((?x734 (- 20.0)))
 (let ((?x3002 (+ (+ (+ (* 7.0 |v9:2|) (* 10.0 ?x934)) (* 17.0 ?x760)) (* 0.0 (rval2 |v5:6_st|)))))
 (let ((?x1450 (+ (+ (+ (* 9.0 |v0:11|) (* (- 9.0) |v2:9|)) (* (- 2.0) |v9:2|)) (* ?x2692 |v9:2|))))
 (let ((?x2949 (- 11.0)))
 (let ((?x1978 (- 19.0)))
 (let ((?x1892 (* ?x1978 |v10:1|)))
 (let ((?x1461 (+ (+ (+ (* (- 18.0) (rval2 |v5:6_st|)) (* 6.0 ?x468)) (* ?x734 |v1:10|)) ?x1892)))
 (let (($x1683 (or (and (<= ?x1461 ?x2949) (<= ?x1450 20.0)) (and (<= ?x3002 ?x734) (<= ?x1027 ?x355)))))
 (let (($x145 (and (and (or $x1683 (<= ?x2916 ?x1581)) (and (<= ?x1382 15.0) $x2593)) (<= ?x486 8.0))))
 (let ((?x1620 (* 9.0 |v10:1|)))
 (let (($x1508 (<= (+ (+ (+ (* 2.0 ?x760) |v2:9|) (* (- 18.0) (rval2 |v5:6_st|))) ?x1620) 10.0)))
 (let (($x1969 (<= (+ (+ (+ (* 6.0 |v8:3|) (* 11.0 ?x468)) ?x1653) (* ?x355 |v2:9|)) ?x355)))
 (let ((?x991 (- 9.0)))
 (let ((?x181 (+ (+ (+ (* (- 12.0) ?x760) (* ?x2692 (rval2 |v5:6_st|))) (* 7.0 ?x760)) (* (- 7.0) |v8:3|))))
 (let ((?x1870 (+ (+ (* 6.0 |v1:10|) (* ?x2692 |v3:8|)) (* (- 15.0) |v1:10|))))
 (let (($x615 (or (or (<= (+ ?x1870 (* (- 4.0) ?x934)) 5.0) (<= ?x181 ?x991)) (and $x1969 $x1508))))
 (let ((?x1173 (* 11.0 ?x934)))
 (let ((?x1982 (+ (+ (+ (* 16.0 ?x760) (* 11.0 (rval2 |v5:6_st|))) (* (- 18.0) |v1:10|)) ?x1173)))
 (let ((?x2329 (- 12.0)))
 (let ((?x2762 (+ (+ (+ (* 5.0 ?x760) (* (- 8.0) |v3:8|)) (* 3.0 |v3:8|)) (* ?x1581 |v8:3|))))
 (let (($x1091 (<= (+ (+ (+ (* 12.0 ?x760) (* 8.0 ?x468)) (* 13.0 |v2:9|)) ?x1892) 18.0)))
 (let ((?x1778 (* ?x2692 |v1:10|)))
 (let ((?x710 (+ (+ (+ (* (- 15.0) ?x468) (* 6.0 |v0:11|)) (* 2.0 ?x468)) ?x1778)))
 (let ((?x581 (- 16.0)))
 (let ((?x1425 (+ (+ (+ (* ?x773 |v3:8|) (* (- 1.0) |v0:11|)) (* ?x2329 |v9:2|)) (* ?x734 (rval2 |v5:6_st|)))))
 (let ((?x3175 (rval2 |v5:6_st|)))
 (let ((?x768 (* 9.0 ?x3175)))
 (let (($x2631 (<= (+ (+ (+ (* ?x773 |v10:1|) (* 12.0 |v8:3|)) (* ?x1978 |v1:10|)) ?x768) 14.0)))
 (let ((?x671 (* 14.0 |v9:2|)))
 (let ((?x549 (+ (+ (+ (* 15.0 ?x3175) (* (- 4.0) |v11:0|)) (* 18.0 |v10:1|)) ?x671)))
 (let ((?x532 (+ (+ (+ (* ?x1581 |v11:0|) (* 6.0 |v9:2|)) (* ?x1581 ?x760)) (* (- 8.0) |v10:1|))))
 (let ((?x787 (+ (+ (+ (* (- 8.0) |v2:9|) (* ?x355 |v9:2|)) (* ?x574 |v9:2|)) (* 15.0 ?x934))))
 (let ((?x1278 (- 18.0)))
 (let ((?x208 (* ?x1278 |v2:9|)))
 (let (($x3200 (<= (+ (+ (+ (* 9.0 ?x760) (* 12.0 |v2:9|)) (* ?x574 ?x934)) ?x208) 8.0)))
 (let (($x2148 (and (or (or $x3200 (<= ?x787 ?x1978)) (or (<= ?x532 ?x2692) (<= ?x549 7.0))) (and (and $x2631 (<= ?x1425 ?x581)) (and (<= ?x710 2.0) $x1091)))))
 (let ((?x1034 (- 7.0)))
 (let ((?x207 (- 1.0)))
 (let ((?x108 (* ?x207 |v3:8|)))
 (let ((?x1547 (* ?x2655 |v0:11|)))
 (let (($x3006 (<= (+ (+ (+ (* ?x355 |v8:3|) (* ?x773 ?x3175)) (* 7.0 |v0:11|)) ?x1547) 16.0)))
 (let ((?x863 (* 9.0 |v11:0|)))
 (let (($x1627 (<= (+ (+ (+ (* 14.0 ?x760) (* 7.0 |v0:11|)) (* 11.0 |v9:2|)) ?x863) ?x1278)))
 (let ((?x444 (+ (+ (+ (* 18.0 ?x934) (* ?x355 |v2:9|)) (* ?x991 |v11:0|)) (* 0.0 |v11:0|))))
 (let (($x2815 (<= (+ (+ (+ (* 7.0 |v11:0|) ?x768) (* 0.0 |v1:10|)) (* ?x773 |v3:8|)) 11.0)))
 (let ((?x367 (+ (+ (+ (* ?x1278 |v0:11|) (* ?x1581 ?x934)) (* ?x2329 |v0:11|)) (* 12.0 ?x3175))))
 (let ((?x955 (* 14.0 |v2:9|)))
 (let (($x1031 (<= (+ (+ (+ (* 2.0 |v0:11|) (* (- 15.0) |v2:9|)) (* ?x1034 |v11:0|)) ?x955) 6.0)))
 (let (($x733 (<= (+ (+ (+ (* 5.0 ?x760) (* ?x581 ?x760)) ?x727) (* (- 14.0) |v10:1|)) ?x1034)))
 (let ((?x962 (+ (+ (+ (* ?x734 ?x934) (* ?x1978 |v8:3|)) (* ?x773 |v2:9|)) (* ?x1581 ?x468))))
 (let (($x2228 (or (or (or (<= ?x962 ?x1978) $x733) (and $x1031 (<= ?x367 2.0))) (and (or $x2815 (<= ?x444 3.0)) (or $x1627 $x3006)))))
 (let (($x2846 (and $x2228 (<= (+ (+ (+ (* 18.0 |v3:8|) (* 0.0 |v2:9|)) |v9:2|) ?x108) ?x1034))))
 (let (($x2972 (or (or $x2846 (or $x2148 (or (or (<= ?x2762 ?x2329) (<= ?x1982 20.0)) $x615))) $x145)))
 (let (($x3027 (not (= |v4:7_st| (RMk1 val!4231)))))
 (let (($x820 (not (= |v5:6_st| (RMk1 val!4230)))))
 (let (($x1286 (not (= |v6:5_st| (RMk1 val!4229)))))
 (let (($x2483 (not (= |v7:4_st| (RMk1 val!4228)))))
 (and $x2483 $x1286 $x820 $x3027 $x2972)))))))))))))))))))))))))))))))))))))))))))))))))))))))))))))))))))))))))))))))))))
 )
 )
 )
 )
 )
 )
 )
 )
 )
 )
 )
 )
(check-sat)
